(set-logic QF_UF)
(declare-fun A0 () Bool)
(declare-fun A1 () Bool)
(declare-fun A2 () Bool)
(declare-fun A3 () Bool)
(declare-fun A4 () Bool)
(declare-fun A5 () Bool)
(declare-fun A6 () Bool)
(declare-fun A7 () Bool)
(declare-fun A8 () Bool)
(declare-fun A9 () Bool)
(declare-fun A10 () Bool)
(declare-fun A12 () Bool)
(declare-fun A13 () Bool)
(declare-fun A15 () Bool)
(declare-fun A16 () Bool)
(declare-fun A17 () Bool)
(declare-fun A18 () Bool)
(declare-fun A19 () Bool)
(declare-fun A20 () Bool)
(declare-fun A21 () Bool)
(declare-fun A22 () Bool)
(declare-fun A23 () Bool)
(declare-fun A24 () Bool)
(assert (let ((.def_0 (not A19))) (let ((.def_1 (and .def_0 A15))) (let ((.def_2 (not A12))) (let ((.def_3 (and A15 .def_2))) (let ((.def_4 (not .def_3))) (let ((.def_5 (= .def_4 .def_1))) (let ((.def_6 (not .def_5))) (let ((.def_7 (not A0))) (let ((.def_8 (or .def_7 A16))) (let ((.def_9 (not .def_8))) (let ((.def_10 (and A23 A3))) (let ((.def_11 (and .def_10 .def_9))) (let ((.def_12 (and .def_11 .def_6))) (let ((.def_13 (not .def_12))) (let ((.def_14 (and A19 A15))) (let ((.def_15 (not .def_14))) (let ((.def_16 (not A15))) (let ((.def_17 (or A7 .def_16))) (let ((.def_18 (or .def_17 .def_15))) (let ((.def_19 (not .def_18))) (let ((.def_20 (not A1))) (let ((.def_21 (or .def_2 .def_20))) (let ((.def_22 (not .def_21))) (let ((.def_23 (or A0 A7))) (let ((.def_24 (not .def_23))) (let ((.def_25 (or .def_24 .def_22))) (let ((.def_26 (not .def_25))) (let ((.def_27 (and .def_26 .def_19))) (let ((.def_28 (not .def_27))) (let ((.def_29 (and .def_28 .def_13))) (let ((.def_30 (not .def_29))) (let ((.def_31 (not A20))) (let ((.def_32 (not A18))) (let ((.def_33 (or .def_32 .def_31))) (let ((.def_34 (or A20 A3))) (let ((.def_35 (not .def_34))) (let ((.def_36 (or .def_35 .def_33))) (let ((.def_37 (not .def_36))) (let ((.def_38 (not A5))) (let ((.def_39 (and A7 .def_38))) (let ((.def_40 (and A10 A22))) (let ((.def_41 (not .def_40))) (let ((.def_42 (and .def_41 .def_39))) (let ((.def_43 (not .def_42))) (let ((.def_44 (and .def_43 .def_37))) (let ((.def_45 (not .def_44))) (let ((.def_46 (not A4))) (let ((.def_47 (= .def_46 A7))) (let ((.def_48 (not .def_47))) (let ((.def_49 (not A21))) (let ((.def_50 (or .def_16 .def_49))) (let ((.def_51 (not .def_50))) (let ((.def_52 (or .def_51 .def_48))) (let ((.def_53 (not A7))) (let ((.def_54 (and .def_53 .def_53))) (let ((.def_55 (not A23))) (let ((.def_56 (or A6 .def_55))) (let ((.def_57 (not .def_56))) (let ((.def_58 (and .def_57 .def_54))) (let ((.def_59 (not .def_58))) (let ((.def_60 (and .def_59 .def_52))) (let ((.def_61 (not .def_60))) (let ((.def_62 (and .def_61 .def_45))) (let ((.def_63 (not .def_62))) (let ((.def_64 (or .def_63 .def_30))) (let ((.def_65 (not .def_64))) (let ((.def_66 (or .def_55 A1))) (let ((.def_67 (not .def_66))) (let ((.def_68 (not A2))) (let ((.def_69 (not A8))) (let ((.def_70 (= .def_69 .def_68))) (let ((.def_71 (not .def_70))) (let ((.def_72 (or .def_71 .def_67))) (let ((.def_73 (and A16 A24))) (let ((.def_74 (not A3))) (let ((.def_75 (or A9 .def_74))) (let ((.def_76 (or .def_75 .def_73))) (let ((.def_77 (not .def_76))) (let ((.def_78 (or .def_77 .def_72))) (let ((.def_79 (not .def_78))) (let ((.def_80 (and A24 A12))) (let ((.def_81 (not .def_80))) (let ((.def_82 (or A4 A3))) (let ((.def_83 (not .def_82))) (let ((.def_84 (or .def_83 .def_81))) (let ((.def_85 (or A17 .def_0))) (let ((.def_86 (not .def_85))) (let ((.def_87 (or .def_69 .def_69))) (let ((.def_88 (not .def_87))) (let ((.def_89 (or .def_88 .def_86))) (let ((.def_90 (and .def_89 .def_84))) (let ((.def_91 (not .def_90))) (let ((.def_92 (and .def_91 .def_79))) (let ((.def_93 (or A4 .def_69))) (let ((.def_94 (and A0 A21))) (let ((.def_95 (or .def_94 .def_93))) (let ((.def_96 (not .def_95))) (let ((.def_97 (or A1 .def_2))) (let ((.def_98 (not .def_97))) (let ((.def_99 (not A17))) (let ((.def_100 (not A9))) (let ((.def_101 (or .def_100 .def_99))) (let ((.def_102 (not .def_101))) (let ((.def_103 (and .def_102 .def_98))) (let ((.def_104 (not .def_103))) (let ((.def_105 (and .def_104 .def_96))) (let ((.def_106 (and .def_32 .def_2))) (let ((.def_107 (not .def_106))) (let ((.def_108 (not A13))) (let ((.def_109 (and .def_108 .def_2))) (let ((.def_110 (not .def_109))) (let ((.def_111 (and .def_110 .def_107))) (let ((.def_112 (or .def_108 .def_7))) (let ((.def_113 (not .def_112))) (let ((.def_114 (= .def_53 .def_2))) (let ((.def_115 (and .def_114 .def_113))) (let ((.def_116 (not .def_115))) (let ((.def_117 (or .def_116 .def_111))) (let ((.def_118 (not .def_117))) (let ((.def_119 (= .def_118 .def_105))) (let ((.def_120 (not .def_119))) (let ((.def_121 (= .def_120 .def_92))) (let ((.def_122 (not .def_121))) (let ((.def_123 (or .def_122 .def_65))) .def_123)))))))))))))))))))))))))))))))))))))))))))))))))))))))))))))))))))))))))))))))))))))))))))))))))))))))))))))))))))))))))))))
(check-sat)
